NAME          MIP_VARIED_EX03
ROWS
 N   OBJ
 L   C1
 G   C2
COLUMNS
    X1       OBJ       6
    X1       C1       1
    X1       C2       3
    X2       OBJ       5
    X2       C1       3
    X2       C2       1
    X3       OBJ       5
RHS
    RHS1     C1        7
    RHS1     C2        5
BOUNDS
 BV BND1     X1
 BV BND1     X2
 BV BND1     X3
ENDATA